
  32    4
  10   10   10   10

   0   0   0   0   0   3 2 30 31 
   5  10  10  10  10   1 3 
  10  10  10  10  10   1 4 
   1  10  10  10  10   2 29 5 
   1  10  10  10  10   1 6 
  10  10  10  10  10   1 7 
   8  10  10  10  10   1 8 
   9  10  10  10  10   1 9 
   8  10  10  10  10   1 10 
   5  10  10  10  10   1 11 
   3  10  10  10  10   1 12 
   2  10  10  10  10   1 13 
   1  10  10  10  10   2 28 14 
   7  10  10  10  10   1 15 
   4  10  10  10  10   1 16 
  10  10  10  10  10   1 17 
   3  10  10  10  10   1 18 
   4  10  10  10  10   2 27 19 
   8  10  10  10  10   1 20 
   6  10  10  10  10   1 21 
   1  10  10  10  10   1 22 
   1  10  10  10  10   1 23 
   9  10  10  10  10   2 26 24 
   5  10  10  10  10   1 25 
   3  10  10  10  10   1 32
   6  10  10  10  10   1 32
   5  10  10  10  10   1 32
   2  10  10  10  10   1 32
   6  10  10  10  10   1 32
   3  10  10  10  10   1 32
   5  10  10  10  10   1 32
   0   0   0   0   0   0 
